Calculando min-max:
Criando instancia min-C...
Instancia criada.
Resolvendo instancia...
GLPSOL--GLPK LP/MIP Solver 5.0
Parameter(s) specified in the command line:
 --write /tmp/tmp7h0dot2c.glpk.raw --wglp /tmp/tmppz7paq6t.glpk.glp --cpxlp
 /tmp/tmplxppy88e.pyomo.lp
Reading problem data from '/tmp/tmplxppy88e.pyomo.lp'...
/tmp/tmplxppy88e.pyomo.lp:148419: warning: lower bound of variable 'x2' redefined
/tmp/tmplxppy88e.pyomo.lp:148419: warning: upper bound of variable 'x2' redefined
24984 rows, 13761 columns, 59574 non-zeros
13761 integer variables, 13740 of which are binary
162159 lines were read
Writing problem data to '/tmp/tmppz7paq6t.glpk.glp'...
114575 lines were written
GLPK Integer Optimizer 5.0
24984 rows, 13761 columns, 59574 non-zeros
13761 integer variables, 13740 of which are binary
Preprocessing...
138 hidden packing inequaliti(es) were detected
2637 hidden covering inequaliti(es) were detected
87 constraint coefficient(s) were reduced
10830 rows, 4643 columns, 27647 non-zeros
4643 integer variables, 4624 of which are binary
Scaling...
 A: min|aij| =  1.000e+00  max|aij| =  2.300e+01  ratio =  2.300e+01
GM: min|aij| =  4.592e-01  max|aij| =  2.178e+00  ratio =  4.742e+00
EQ: min|aij| =  2.133e-01  max|aij| =  1.000e+00  ratio =  4.688e+00
2N: min|aij| =  2.500e-01  max|aij| =  1.438e+00  ratio =  5.750e+00
Constructing initial basis...
Size of triangular part is 10830
Solving LP relaxation...
GLPK Simplex Optimizer 5.0
10830 rows, 4643 columns, 27647 non-zeros
      0: obj =   0.000000000e+00 inf =   5.962e+01 (91)
Perturbing LP to avoid stalling [200]...
    681: obj =   8.037499997e+01 inf =   5.733e-07 (0) 2
Removing LP perturbation [1514]...
*  1514: obj =   2.105690362e-01 inf =   0.000e+00 (0) 4
OPTIMAL LP SOLUTION FOUND
Integer optimization begins...
Long-step dual simplex will be used
+  1514: mip =     not found yet >=              -inf        (1; 0)
+  6114: >>>>>   4.000000000e+00 >=   4.000000000e+00   0.0% (77; 43)
+  6114: mip =   4.000000000e+00 >=     tree is empty   0.0% (0; 239)
INTEGER OPTIMAL SOLUTION FOUND
Time used:   2.7 secs
Memory used: 22.4 Mb (23451261 bytes)
Writing MIP solution to '/tmp/tmp7h0dot2c.glpk.raw'...
38754 lines were written
Maximos: {'E': 15.2396, 'C': 93}
Minimos: {'E': 0.611782, 'C': 4.0}
Resolvendo instancia...
GLPSOL--GLPK LP/MIP Solver 5.0
Parameter(s) specified in the command line:
 --write /tmp/tmpukfgmfh5.glpk.raw --wglp /tmp/tmp1ievhhdr.glpk.glp --cpxlp
 /tmp/tmpesikmyb2.pyomo.lp
Reading problem data from '/tmp/tmpesikmyb2.pyomo.lp'...
/tmp/tmpesikmyb2.pyomo.lp:148381: warning: lower bound of variable 'x3' redefined
/tmp/tmpesikmyb2.pyomo.lp:148381: warning: upper bound of variable 'x3' redefined
24984 rows, 13762 columns, 59574 non-zeros
13761 integer variables, 13740 of which are binary
162121 lines were read
Writing problem data to '/tmp/tmp1ievhhdr.glpk.glp'...
114538 lines were written
GLPK Integer Optimizer 5.0
24984 rows, 13762 columns, 59574 non-zeros
13761 integer variables, 13740 of which are binary
Preprocessing...
138 hidden packing inequaliti(es) were detected
2637 hidden covering inequaliti(es) were detected
87 constraint coefficient(s) were reduced
10830 rows, 4643 columns, 27647 non-zeros
4643 integer variables, 4624 of which are binary
Scaling...
 A: min|aij| =  1.000e+00  max|aij| =  2.300e+01  ratio =  2.300e+01
GM: min|aij| =  4.592e-01  max|aij| =  2.178e+00  ratio =  4.742e+00
EQ: min|aij| =  2.133e-01  max|aij| =  1.000e+00  ratio =  4.688e+00
2N: min|aij| =  2.500e-01  max|aij| =  1.438e+00  ratio =  5.750e+00
Constructing initial basis...
Size of triangular part is 10830
Solving LP relaxation...
GLPK Simplex Optimizer 5.0
10830 rows, 4643 columns, 27647 non-zeros
      0: obj =  -4.182318921e-02 inf =   5.962e+01 (91)
Perturbing LP to avoid stalling [200]...
    551: obj =   2.646430418e-01 inf =   1.055e-15 (0) 2
Removing LP perturbation [984]...
*   984: obj =   4.898554769e-17 inf =   2.158e-13 (0) 1
OPTIMAL LP SOLUTION FOUND
Integer optimization begins...
Long-step dual simplex will be used
+   984: mip =     not found yet >=              -inf        (1; 0)
+  1992: >>>>>   4.499384615e-19 >=   0.000000000e+00  23.5% (15; 2)
+  1992: mip =   4.499384615e-19 >=     tree is empty   0.0% (0; 33)
INTEGER OPTIMAL SOLUTION FOUND
Time used:   0.7 secs
Memory used: 21.2 Mb (22201927 bytes)
Writing MIP solution to '/tmp/tmpukfgmfh5.glpk.raw'...
38755 lines were written

Resultados:

E: 0.0 -- 0.611782 mA
C: 0.0 -- 4.0 points
WEIGHTED: 0.0
Total Solving time: 0.8389866352081299 s
Total elapsed time since execution: 7.088079452514648
